
  22    4
  10   10   10   10

   0   0   0   0   0   7 2 3 4 5 6 9 13 
   2  10  10  10  10   8 20 17 16 15 12 11 10 7 
   9  10  10  10  10   7 20 19 16 12 11 10 8 
  10  10  10  10  10   7 20 18 17 16 15 12 7 
   7  10  10  10  10   5 18 17 16 15 11 
   2  10  10  10  10   3 19 15 12 
  10  10  10  10  10   3 21 19 14 
   8  10  10  10  10   3 17 15 14 
   2  10  10  10  10   2 16 11 
   2  10  10  10  10   2 18 14 
   5  10  10  10  10   1 14 
   7  10  10  10  10   1 14 
   4  10  10  10  10   1 14 
   1  10  10  10  10   1 22
   7  10  10  10  10   1 22
   4  10  10  10  10   1 22
   9  10  10  10  10   1 22
   5  10  10  10  10   1 22
   4  10  10  10  10   1 22
   2  10  10  10  10   1 22
   9  10  10  10  10   1 22
   0   0   0   0   0   0 
